benchmarks/bfuzz0/902913123845527175189682483323647407.smt2
(set-logic QF_FP)
(declare-const x0 (_ FloatingPoint 8 24))
(declare-const x1 (_ FloatingPoint 8 24))
(declare-const x2 (_ FloatingPoint 8 24))
(declare-const x3 (_ FloatingPoint 8 24))
(declare-const x4 (_ FloatingPoint 8 24))
(declare-const x5 (_ FloatingPoint 8 24))
(declare-const x6 (_ FloatingPoint 8 24))
(declare-const x7 (_ FloatingPoint 8 24))
(assert (fp.lt (fp.div RNE (fp.add RNE x5 x6) (fp.neg x2)) (fp.neg (fp.add RNE x3 x7))))
(check-sat)
