db/data/902913123845527175189682483323647407.z3.out
sat
-------------------
12.867280209
